p ocr 133 125 281
2 187
6 187
15 187
18 187
19 187
20 187
23 187
25 187
26 187
28 187
33 187
36 187
37 187
40 187
52 187
55 187
61 187
63 187
69 139
69 141
69 145
69 148
69 152
69 154
69 163
69 165
69 168
69 172
69 181
69 182
69 184
69 186
69 187
69 188
69 190
69 194
69 199
69 200
69 201
69 203
69 207
69 208
69 209
69 211
69 212
69 214
69 218
69 224
69 225
69 230
69 236
69 244
69 245
69 247
69 248
69 255
69 256
72 187
74 187
75 134
75 135
75 139
75 140
75 142
75 144
75 147
75 149
75 151
75 154
75 158
75 162
75 163
75 164
75 166
75 168
75 170
75 174
75 175
75 176
75 177
75 180
75 185
75 187
75 192
75 198
75 200
75 204
75 205
75 207
75 208
75 217
75 223
75 224
75 225
75 226
75 227
75 232
75 234
75 235
75 242
75 248
75 251
75 252
75 254
75 255
75 256
76 187
81 187
83 187
85 187
86 187
88 187
89 187
91 187
92 134
92 136
92 137
92 138
92 139
92 142
92 145
92 146
92 147
92 151
92 152
92 157
92 158
92 161
92 164
92 165
92 168
92 169
92 173
92 175
92 176
92 178
92 179
92 182
92 183
92 184
92 187
92 188
92 193
92 196
92 201
92 202
92 204
92 206
92 208
92 213
92 215
92 218
92 219
92 220
92 221
92 222
92 223
92 230
92 233
92 237
92 238
92 239
92 240
92 243
92 245
92 247
92 248
92 249
92 255
92 257
92 258
94 187
96 187
97 134
97 138
97 139
97 147
97 149
97 153
97 154
97 155
97 156
97 158
97 160
97 162
97 168
97 169
97 170
97 173
97 176
97 177
97 182
97 187
97 189
97 190
97 192
97 193
97 195
97 196
97 198
97 199
97 200
97 204
97 208
97 209
97 210
97 217
97 218
97 225
97 227
97 228
97 233
97 241
97 242
97 245
97 247
97 249
97 252
99 187
102 187
106 187
108 187
110 187
111 187
113 187
116 135
116 137
116 143
116 145
116 148
116 151
116 152
116 155
116 157
116 159
116 166
116 168
116 169
116 172
116 173
116 174
116 176
116 179
116 180
116 185
116 187
116 190
116 192
116 193
116 194
116 195
116 196
116 197
116 199
116 200
116 202
116 208
116 211
116 218
116 221
116 224
116 229
116 233
116 236
116 238
116 240
116 241
116 244
116 245
116 247
116 249
116 251
116 256
116 258
118 187
122 187
123 187
128 187
129 187
130 187
133 187